12960 13871 15444
14621 13468 13308
12164 12253 16084
14447 13161 14468
14997 11740 13148
13589 14400 12531
12725 13495 15811
12644 13289 15910
12544 12488 15982
12769 14838 13457
12721 14439 14791
14020 13302 15001
14930 12116 13753
11918 13732 15590
13463 13331 15559
12010 13262 15962
12917 12850 15824
14769 13057 13465
13278 14410 14233
14014 12786 15308
13239 14225 14696
13501 13634 15470
13334 13919 15251
13932 14196 13188
14309 12392 14977
13874 13661 14964
14441 13768 13964
13904 13584 15004
12764 13356 15866
12855 14708 14020
14887 12538 12844
14594 13262 13922
14704 12464 14226
14820 12914 13449
12902 12089 15832
14723 11813 14316
13921 14079 14120
